
  22   10
  10   10   10   10   10   10   10   10   10   10

   0   0   0   0   0   0   0   0   0   0   0   6 2 4 7 9 11 21 
   7  10  10  10  10  10  10  10  10  10  10   4 20 18 17 3 
  10  10  10  10  10  10  10  10  10  10  10   5 19 16 13 6 5 
   3  10  10  10  10  10  10  10  10  10  10   4 18 16 13 12 
   1  10  10  10  10  10  10  10  10  10  10   3 15 14 10 
   6  10  10  10  10  10  10  10  10  10  10   2 15 8 
   6  10  10  10  10  10  10  10  10  10  10   3 17 14 12 
   8  10  10  10  10  10  10  10  10  10  10   1 10 
   9  10  10  10  10  10  10  10  10  10  10   1 10 
   4  10  10  10  10  10  10  10  10  10  10   1 12 
   5  10  10  10  10  10  10  10  10  10  10   1 13 
   8  10  10  10  10  10  10  10  10  10  10   1 22
   4  10  10  10  10  10  10  10  10  10  10   1 22
   1  10  10  10  10  10  10  10  10  10  10   1 22
   7  10  10  10  10  10  10  10  10  10  10   1 22
   3  10  10  10  10  10  10  10  10  10  10   1 22
   4  10  10  10  10  10  10  10  10  10  10   1 22
   9  10  10  10  10  10  10  10  10  10  10   1 22
   5  10  10  10  10  10  10  10  10  10  10   1 22
   9  10  10  10  10  10  10  10  10  10  10   1 22
  10  10  10  10  10  10  10  10  10  10  10   1 22
   0   0   0   0   0   0   0   0   0   0   0   0 
